; Benchmark for LTL-sketching problem
(set-logic QF_UF)
(set-info :status unknown)
(declare-fun z_1_0 () Bool)
(declare-fun z_0_0 () Bool)
(declare-fun z_0_2 () Bool)
(declare-fun z_1_1 () Bool)
(declare-fun z_0_1 () Bool)
(declare-fun z_0_3 () Bool)
(declare-fun z_1_2 () Bool)
(declare-fun z_0_4 () Bool)
(declare-fun z_1_3 () Bool)
(declare-fun z_0_5 () Bool)
(declare-fun z_1_4 () Bool)
(declare-fun z_0_6 () Bool)
(declare-fun z_1_5 () Bool)
(declare-fun z_0_7 () Bool)
(declare-fun z_1_6 () Bool)
(declare-fun z_1_7 () Bool)
(declare-fun z_0_9 () Bool)
(declare-fun z_1_8 () Bool)
(declare-fun z_0_8 () Bool)
(declare-fun z_0_10 () Bool)
(declare-fun z_1_9 () Bool)
(declare-fun z_0_11 () Bool)
(declare-fun z_1_10 () Bool)
(declare-fun z_0_12 () Bool)
(declare-fun z_1_11 () Bool)
(declare-fun z_0_13 () Bool)
(declare-fun z_1_12 () Bool)
(declare-fun z_0_14 () Bool)
(declare-fun z_1_13 () Bool)
(declare-fun z_0_15 () Bool)
(declare-fun z_1_14 () Bool)
(declare-fun z_0_16 () Bool)
(declare-fun z_1_15 () Bool)
(declare-fun z_0_17 () Bool)
(declare-fun z_1_16 () Bool)
(declare-fun z_0_18 () Bool)
(declare-fun z_1_17 () Bool)
(declare-fun z_0_19 () Bool)
(declare-fun z_1_18 () Bool)
(declare-fun z_1_19 () Bool)
(declare-fun z_0_21 () Bool)
(declare-fun z_1_20 () Bool)
(declare-fun z_0_20 () Bool)
(declare-fun z_0_22 () Bool)
(declare-fun z_1_21 () Bool)
(declare-fun z_0_23 () Bool)
(declare-fun z_1_22 () Bool)
(declare-fun z_0_24 () Bool)
(declare-fun z_1_23 () Bool)
(declare-fun z_0_25 () Bool)
(declare-fun z_1_24 () Bool)
(declare-fun z_0_26 () Bool)
(declare-fun z_1_25 () Bool)
(declare-fun z_0_27 () Bool)
(declare-fun z_1_26 () Bool)
(declare-fun z_0_28 () Bool)
(declare-fun z_1_27 () Bool)
(declare-fun z_0_29 () Bool)
(declare-fun z_1_28 () Bool)
(declare-fun z_0_30 () Bool)
(declare-fun z_1_29 () Bool)
(declare-fun z_1_30 () Bool)
(declare-fun z_1_31 () Bool)
(declare-fun z_0_31 () Bool)
(declare-fun z_0_33 () Bool)
(declare-fun z_1_32 () Bool)
(declare-fun z_0_32 () Bool)
(declare-fun z_0_34 () Bool)
(declare-fun z_1_33 () Bool)
(declare-fun z_0_35 () Bool)
(declare-fun z_1_34 () Bool)
(declare-fun z_1_35 () Bool)
(declare-fun z_0_37 () Bool)
(declare-fun z_1_36 () Bool)
(declare-fun z_0_36 () Bool)
(declare-fun z_0_38 () Bool)
(declare-fun z_1_37 () Bool)
(declare-fun z_0_39 () Bool)
(declare-fun z_1_38 () Bool)
(declare-fun z_0_40 () Bool)
(declare-fun z_1_39 () Bool)
(declare-fun z_0_41 () Bool)
(declare-fun z_1_40 () Bool)
(declare-fun z_1_41 () Bool)
(declare-fun z_0_43 () Bool)
(declare-fun z_1_42 () Bool)
(declare-fun z_0_42 () Bool)
(declare-fun z_0_44 () Bool)
(declare-fun z_1_43 () Bool)
(declare-fun z_0_45 () Bool)
(declare-fun z_1_44 () Bool)
(declare-fun z_0_46 () Bool)
(declare-fun z_1_45 () Bool)
(declare-fun z_0_47 () Bool)
(declare-fun z_1_46 () Bool)
(declare-fun z_0_48 () Bool)
(declare-fun z_1_47 () Bool)
(declare-fun z_1_48 () Bool)
(declare-fun z_0_50 () Bool)
(declare-fun z_1_49 () Bool)
(declare-fun z_0_49 () Bool)
(declare-fun z_0_51 () Bool)
(declare-fun z_1_50 () Bool)
(declare-fun z_1_51 () Bool)
(declare-fun z_0_53 () Bool)
(declare-fun z_1_52 () Bool)
(declare-fun z_0_52 () Bool)
(declare-fun z_0_54 () Bool)
(declare-fun z_1_53 () Bool)
(declare-fun z_0_55 () Bool)
(declare-fun z_1_54 () Bool)
(declare-fun z_0_56 () Bool)
(declare-fun z_1_55 () Bool)
(declare-fun z_1_56 () Bool)
(declare-fun z_0_58 () Bool)
(declare-fun z_1_57 () Bool)
(declare-fun z_0_57 () Bool)
(declare-fun z_0_59 () Bool)
(declare-fun z_1_58 () Bool)
(declare-fun z_0_60 () Bool)
(declare-fun z_1_59 () Bool)
(declare-fun z_0_61 () Bool)
(declare-fun z_1_60 () Bool)
(declare-fun z_0_62 () Bool)
(declare-fun z_1_61 () Bool)
(declare-fun z_0_63 () Bool)
(declare-fun z_1_62 () Bool)
(declare-fun z_0_64 () Bool)
(declare-fun z_1_63 () Bool)
(declare-fun z_0_65 () Bool)
(declare-fun z_1_64 () Bool)
(declare-fun z_0_66 () Bool)
(declare-fun z_1_65 () Bool)
(declare-fun z_0_67 () Bool)
(declare-fun z_1_66 () Bool)
(declare-fun z_1_67 () Bool)
(declare-fun z_2_0 () Bool)
(declare-fun z_2_1 () Bool)
(declare-fun z_2_2 () Bool)
(declare-fun z_2_3 () Bool)
(declare-fun z_2_4 () Bool)
(declare-fun z_2_5 () Bool)
(declare-fun z_2_6 () Bool)
(declare-fun z_2_7 () Bool)
(declare-fun z_2_8 () Bool)
(declare-fun z_2_9 () Bool)
(declare-fun z_2_10 () Bool)
(declare-fun z_2_11 () Bool)
(declare-fun z_2_12 () Bool)
(declare-fun z_2_13 () Bool)
(declare-fun z_2_14 () Bool)
(declare-fun z_2_15 () Bool)
(declare-fun z_2_16 () Bool)
(declare-fun z_2_17 () Bool)
(declare-fun z_2_18 () Bool)
(declare-fun z_2_19 () Bool)
(declare-fun z_2_20 () Bool)
(declare-fun z_2_21 () Bool)
(declare-fun z_2_22 () Bool)
(declare-fun z_2_23 () Bool)
(declare-fun z_2_24 () Bool)
(declare-fun z_2_25 () Bool)
(declare-fun z_2_26 () Bool)
(declare-fun z_2_27 () Bool)
(declare-fun z_2_28 () Bool)
(declare-fun z_2_29 () Bool)
(declare-fun z_2_30 () Bool)
(declare-fun z_2_31 () Bool)
(declare-fun z_2_32 () Bool)
(declare-fun z_2_33 () Bool)
(declare-fun z_2_34 () Bool)
(declare-fun z_2_35 () Bool)
(declare-fun z_2_36 () Bool)
(declare-fun z_2_37 () Bool)
(declare-fun z_2_38 () Bool)
(declare-fun z_2_39 () Bool)
(declare-fun z_2_40 () Bool)
(declare-fun z_2_41 () Bool)
(declare-fun z_2_42 () Bool)
(declare-fun z_2_43 () Bool)
(declare-fun z_2_44 () Bool)
(declare-fun z_2_45 () Bool)
(declare-fun z_2_46 () Bool)
(declare-fun z_2_47 () Bool)
(declare-fun z_2_48 () Bool)
(declare-fun z_2_49 () Bool)
(declare-fun z_2_50 () Bool)
(declare-fun z_2_51 () Bool)
(declare-fun z_2_52 () Bool)
(declare-fun z_2_53 () Bool)
(declare-fun z_2_54 () Bool)
(declare-fun z_2_55 () Bool)
(declare-fun z_2_56 () Bool)
(declare-fun z_2_57 () Bool)
(declare-fun z_2_58 () Bool)
(declare-fun z_2_59 () Bool)
(declare-fun z_2_60 () Bool)
(declare-fun z_2_61 () Bool)
(declare-fun z_2_62 () Bool)
(declare-fun z_2_63 () Bool)
(declare-fun z_2_64 () Bool)
(declare-fun z_2_65 () Bool)
(declare-fun z_2_66 () Bool)
(declare-fun z_2_67 () Bool)
(assert
 (= z_0_0 (and z_1_0)))
(assert
 (= z_0_1 (and z_1_1 z_0_2)))
(assert
 (= z_0_2 (and z_1_2 z_0_3)))
(assert
 (= z_0_3 (and z_1_3 z_0_4)))
(assert
 (= z_0_4 (and z_1_4 z_0_5)))
(assert
 (= z_0_5 (and z_1_5 z_0_6)))
(assert
 (= z_0_6 (and z_1_6 z_0_7)))
(assert
 (= z_0_7 (and z_1_7 z_1_3 z_1_4 z_1_5 z_1_6)))
(assert
 (= z_0_8 (and z_1_8 z_0_9)))
(assert
 (= z_0_9 (and z_1_9 z_0_10)))
(assert
 (= z_0_10 (and z_1_10 z_0_11)))
(assert
 (= z_0_11 (and z_1_11 z_0_12)))
(assert
 (= z_0_12 (and z_1_12 z_0_13)))
(assert
 (= z_0_13 (and z_1_13 z_0_14)))
(assert
 (= z_0_14 (and z_1_14 z_0_15)))
(assert
 (= z_0_15 (and z_1_15 z_0_16)))
(assert
 (= z_0_16 (and z_1_16 z_0_17)))
(assert
 (= z_0_17 (and z_1_17 z_0_18)))
(assert
 (= z_0_18 (and z_1_18 z_0_19)))
(assert
 (= z_0_19 (and z_1_19 z_1_14 z_1_15 z_1_16 z_1_17 z_1_18)))
(assert
 (= z_0_20 (and z_1_20 z_0_21)))
(assert
 (= z_0_21 (and z_1_21 z_0_22)))
(assert
 (= z_0_22 (and z_1_22 z_0_23)))
(assert
 (= z_0_23 (and z_1_23 z_0_24)))
(assert
 (= z_0_24 (and z_1_24 z_0_25)))
(assert
 (= z_0_25 (and z_1_25 z_0_26)))
(assert
 (= z_0_26 (and z_1_26 z_0_27)))
(assert
 (= z_0_27 (and z_1_27 z_0_28)))
(assert
 (= z_0_28 (and z_1_28 z_0_29)))
(assert
 (= z_0_29 (and z_1_29 z_0_30)))
(assert
 (= z_0_30 (and z_1_30 z_1_26 z_1_27 z_1_28 z_1_29)))
(assert
 (= z_0_31 (and z_1_31 z_0_1)))
(assert
 (= z_0_32 (and z_1_32 z_0_33)))
(assert
 (= z_0_33 (and z_1_33 z_0_34)))
(assert
 (= z_0_34 (and z_1_34 z_0_35)))
(assert
 (= z_0_35 (and z_1_35 z_0_6)))
(assert
 (= z_0_36 (and z_1_36 z_0_37)))
(assert
 (= z_0_37 (and z_1_37 z_0_38)))
(assert
 (= z_0_38 (and z_1_38 z_0_39)))
(assert
 (= z_0_39 (and z_1_39 z_0_40)))
(assert
 (= z_0_40 (and z_1_40 z_0_41)))
(assert
 (= z_0_41 (and z_1_41 z_1_37 z_1_38 z_1_39 z_1_40)))
(assert
 (= z_0_42 (and z_1_42 z_0_43)))
(assert
 (= z_0_43 (and z_1_43 z_0_44)))
(assert
 (= z_0_44 (and z_1_44 z_0_45)))
(assert
 (= z_0_45 (and z_1_45 z_0_46)))
(assert
 (= z_0_46 (and z_1_46 z_0_47)))
(assert
 (= z_0_47 (and z_1_47 z_0_48)))
(assert
 (= z_0_48 (and z_1_48 z_1_45 z_1_46 z_1_47)))
(assert
 (= z_0_49 (and z_1_49 z_0_50)))
(assert
 (= z_0_50 (and z_1_50 z_0_51)))
(assert
 (= z_0_51 (and z_1_51 z_0_46)))
(assert
 (= z_0_52 (and z_1_52 z_0_53)))
(assert
 (= z_0_53 (and z_1_53 z_0_54)))
(assert
 (= z_0_54 (and z_1_54 z_0_55)))
(assert
 (= z_0_55 (and z_1_55 z_0_56)))
(assert
 (= z_0_56 (and z_1_56 z_0_47)))
(assert
 (= z_0_57 (and z_1_57 z_0_58)))
(assert
 (= z_0_58 (and z_1_58 z_0_59)))
(assert
 (= z_0_59 (and z_1_59 z_0_60)))
(assert
 (= z_0_60 (and z_1_60 z_0_61)))
(assert
 (= z_0_61 (and z_1_61 z_0_62)))
(assert
 (= z_0_62 (and z_1_62 z_0_63)))
(assert
 (= z_0_63 (and z_1_63 z_0_64)))
(assert
 (= z_0_64 (and z_1_64 z_0_65)))
(assert
 (= z_0_65 (and z_1_65 z_0_66)))
(assert
 (= z_0_66 (and z_1_66 z_0_67)))
(assert
 (= z_0_67 (and z_1_67 z_1_62 z_1_63 z_1_64 z_1_65 z_1_66)))
(assert
 (= z_1_0 (not z_2_0)))
(assert
 (= z_1_1 (not z_2_1)))
(assert
 (= z_1_2 (not z_2_2)))
(assert
 (= z_1_3 (not z_2_3)))
(assert
 (= z_1_4 (not z_2_4)))
(assert
 (= z_1_5 (not z_2_5)))
(assert
 (= z_1_6 (not z_2_6)))
(assert
 (= z_1_7 (not z_2_7)))
(assert
 (= z_1_8 (not z_2_8)))
(assert
 (= z_1_9 (not z_2_9)))
(assert
 (= z_1_10 (not z_2_10)))
(assert
 (= z_1_11 (not z_2_11)))
(assert
 (= z_1_12 (not z_2_12)))
(assert
 (= z_1_13 (not z_2_13)))
(assert
 (= z_1_14 (not z_2_14)))
(assert
 (= z_1_15 (not z_2_15)))
(assert
 (= z_1_16 (not z_2_16)))
(assert
 (= z_1_17 (not z_2_17)))
(assert
 (= z_1_18 (not z_2_18)))
(assert
 (= z_1_19 (not z_2_19)))
(assert
 (= z_1_20 (not z_2_20)))
(assert
 (= z_1_21 (not z_2_21)))
(assert
 (= z_1_22 (not z_2_22)))
(assert
 (= z_1_23 (not z_2_23)))
(assert
 (= z_1_24 (not z_2_24)))
(assert
 (= z_1_25 (not z_2_25)))
(assert
 (= z_1_26 (not z_2_26)))
(assert
 (= z_1_27 (not z_2_27)))
(assert
 (= z_1_28 (not z_2_28)))
(assert
 (= z_1_29 (not z_2_29)))
(assert
 (= z_1_30 (not z_2_30)))
(assert
 (= z_1_31 (not z_2_31)))
(assert
 (= z_1_32 (not z_2_32)))
(assert
 (= z_1_33 (not z_2_33)))
(assert
 (= z_1_34 (not z_2_34)))
(assert
 (= z_1_35 (not z_2_35)))
(assert
 (= z_1_36 (not z_2_36)))
(assert
 (= z_1_37 (not z_2_37)))
(assert
 (= z_1_38 (not z_2_38)))
(assert
 (= z_1_39 (not z_2_39)))
(assert
 (= z_1_40 (not z_2_40)))
(assert
 (= z_1_41 (not z_2_41)))
(assert
 (= z_1_42 (not z_2_42)))
(assert
 (= z_1_43 (not z_2_43)))
(assert
 (= z_1_44 (not z_2_44)))
(assert
 (= z_1_45 (not z_2_45)))
(assert
 (= z_1_46 (not z_2_46)))
(assert
 (= z_1_47 (not z_2_47)))
(assert
 (= z_1_48 (not z_2_48)))
(assert
 (= z_1_49 (not z_2_49)))
(assert
 (= z_1_50 (not z_2_50)))
(assert
 (= z_1_51 (not z_2_51)))
(assert
 (= z_1_52 (not z_2_52)))
(assert
 (= z_1_53 (not z_2_53)))
(assert
 (= z_1_54 (not z_2_54)))
(assert
 (= z_1_55 (not z_2_55)))
(assert
 (= z_1_56 (not z_2_56)))
(assert
 (= z_1_57 (not z_2_57)))
(assert
 (= z_1_58 (not z_2_58)))
(assert
 (= z_1_59 (not z_2_59)))
(assert
 (= z_1_60 (not z_2_60)))
(assert
 (= z_1_61 (not z_2_61)))
(assert
 (= z_1_62 (not z_2_62)))
(assert
 (= z_1_63 (not z_2_63)))
(assert
 (= z_1_64 (not z_2_64)))
(assert
 (= z_1_65 (not z_2_65)))
(assert
 (= z_1_66 (not z_2_66)))
(assert
 (= z_1_67 (not z_2_67)))
(assert
 z_0_0)
(assert
 (not z_0_1))
(assert
 (not z_0_8))
(assert
 (not z_0_20))
(assert
 (not z_0_31))
(assert
 (not z_0_32))
(assert
 (not z_0_36))
(assert
 (not z_0_42))
(assert
 (not z_0_49))
(assert
 (not z_0_52))
(assert
 (not z_0_57))
(check-sat)

